no_servers=5;
no_users=5;
no_contents=5;
capacity=[10,16,18,18,16];
x_server=[2,12,6,4,5];
y_server=[3,8,10,6,7];
content_size=[4,3,2,6,5];
x_user=[1,0,2,10,15];
y_user=[2,-1,-2,3,8];
matrix_interest=[|true,false,false,true,false
|false,true,true,false,false
|true,false,false,false,true
|false, true, true, true, true
|true, false, false, true, true|];